param n:=3;

param C : 1 2 3 :=
       1  0 0 0
       2  0 0 0
       3  0 0 2;

param m := 2;

param b := 1 1 2 3;

param A := 
  [1,*,*]: 1  2  3 :=
        1  1  0  0
        2  0 -1  0
        3  0  0  0

  [2,*,*]: 1  2  3 :=
        1  0  0  1
        2  0  0  1
        3  1  1  1
;
